presolving:
(round 1, fast)       6750 del vars, 6892 del conss, 0 add conss, 0 chg bounds, 0 chg sides, 0 chg coeffs, 0 upgd conss, 0 impls, 0 clqs
   (0.5s) running MILP presolver
   (0.6s) MILP presolver found nothing
(round 2, exhaustive) 6750 del vars, 6892 del conss, 0 add conss, 0 chg bounds, 0 chg sides, 0 chg coeffs, 3008 upgd conss, 0 impls, 0 clqs
   (1.2s) probing: 51/420 (12.1%) - 0 fixings, 0 aggregations, 0 implications, 0 bound changes
   (1.2s) probing aborted: 50/50 successive totally useless probings
   (1.5s) symmetry computation started: requiring (bin +, int -, cont +), (fixed: bin -, int +, cont -)
   (1.6s) no symmetry present
presolving (3 rounds: 3 fast, 2 medium, 2 exhaustive):
 36992 deleted vars, 7312 deleted constraints, 0 added constraints, 0 tightened bounds, 0 added holes, 0 changed sides, 0 changed coefficients
 0 implications, 0 cliques
presolved problem has 420 variables (420 bin, 0 int, 0 impl, 0 cont) and 3008 constraints
      8 constraints of type <knapsack>
   3000 constraints of type <logicor>
transformed objective value is always integral (scale: 0.02)
Presolving Time: 1.89

 time | node  | left  |LP iter|LP it/n|mem/heur|mdpt |vars |cons |rows |cuts |sepa|confs|strbr|  dualbound   | primalbound  |  gap   | compl. 
p 2.1s|     1 |     0 |     0 |     - |   locks|   0 | 420 |3008 |3008 |   0 |  0 |   0 |   0 |-4.316876e+06 |-4.133639e+06 |   4.43%| unknown
i 2.1s|     1 |     0 |     0 |     - |  oneopt|   0 | 420 |3008 |3008 |   0 |  0 |   0 |   0 |-4.316876e+06 |-4.314551e+06 |   0.05%| unknown
  2.2s|     1 |     0 |   461 |     - |   482M |   0 | 420 |3008 |3008 |   0 |  0 |   0 |   0 |-4.315736e+06 |-4.314551e+06 |   0.03%| unknown
  2.2s|     1 |     0 |   461 |     - |   482M |   0 | 420 |3008 |3006 |   0 |  0 |   0 |   0 |-4.315736e+06 |-4.314551e+06 |   0.03%| unknown
  2.3s|     1 |     0 |   490 |     - |   484M |   0 | 420 |3008 |3007 |   1 |  1 |   0 |   0 |-4.315733e+06 |-4.314551e+06 |   0.03%| unknown
  2.3s|     1 |     0 |   490 |     - |   484M |   0 | 420 |3008 |3007 |   1 |  1 |   0 |   0 |-4.315733e+06 |-4.314551e+06 |   0.03%| unknown
  2.4s|     1 |     0 |   517 |     - |   485M |   0 | 420 |3008 |3008 |   2 |  2 |   0 |   0 |-4.315731e+06 |-4.314551e+06 |   0.03%| unknown
  2.5s|     1 |     0 |   537 |     - |   487M |   0 | 420 |3008 |3009 |   3 |  3 |   0 |   0 |-4.315730e+06 |-4.314551e+06 |   0.03%| unknown
  2.5s|     1 |     0 |   563 |     - |   490M |   0 | 420 |3008 |3010 |   4 |  4 |   0 |   0 |-4.315728e+06 |-4.314551e+06 |   0.03%| unknown
  2.6s|     1 |     0 |   603 |     - |   492M |   0 | 420 |3008 |3011 |   5 |  5 |   0 |   0 |-4.315727e+06 |-4.314551e+06 |   0.03%| unknown
  2.7s|     1 |     0 |   619 |     - |   493M |   0 | 420 |3008 |3012 |   6 |  6 |   0 |   0 |-4.315726e+06 |-4.314551e+06 |   0.03%| unknown
  2.8s|     1 |     0 |   645 |     - |   496M |   0 | 420 |3008 |3013 |   7 |  7 |   0 |   0 |-4.315725e+06 |-4.314551e+06 |   0.03%| unknown
  2.9s|     1 |     0 |   667 |     - |   498M |   0 | 420 |3008 |3014 |   8 |  8 |   0 |   0 |-4.315725e+06 |-4.314551e+06 |   0.03%| unknown
  2.9s|     1 |     0 |   695 |     - |   500M |   0 | 420 |3008 |3015 |   9 |  9 |   0 |   0 |-4.315724e+06 |-4.314551e+06 |   0.03%| unknown
  3.0s|     1 |     0 |   781 |     - |   502M |   0 | 420 |3008 |3016 |  10 | 10 |   0 |   0 |-4.315721e+06 |-4.314551e+06 |   0.03%| unknown
 time | node  | left  |LP iter|LP it/n|mem/heur|mdpt |vars |cons |rows |cuts |sepa|confs|strbr|  dualbound   | primalbound  |  gap   | compl. 
  3.1s|     1 |     0 |   823 |     - |   502M |   0 | 420 |3008 |3017 |  11 | 11 |   0 |   0 |-4.315720e+06 |-4.314551e+06 |   0.03%| unknown
  3.1s|     1 |     0 |   844 |     - |   503M |   0 | 420 |3008 |3018 |  12 | 12 |   0 |   0 |-4.315720e+06 |-4.314551e+06 |   0.03%| unknown
  3.1s|     1 |     0 |   866 |     - |   503M |   0 | 420 |3008 |3019 |  13 | 13 |   0 |   0 |-4.315720e+06 |-4.314551e+06 |   0.03%| unknown
  3.2s|     1 |     0 |   889 |     - |   503M |   0 | 420 |3008 |3020 |  14 | 14 |   0 |   0 |-4.315719e+06 |-4.314551e+06 |   0.03%| unknown
  3.2s|     1 |     0 |   904 |     - |   504M |   0 | 420 |3008 |3021 |  15 | 15 |   0 |   0 |-4.315719e+06 |-4.314551e+06 |   0.03%| unknown
  3.2s|     1 |     0 |   916 |     - |   504M |   0 | 420 |3008 |3022 |  16 | 16 |   0 |   0 |-4.315719e+06 |-4.314551e+06 |   0.03%| unknown
  3.3s|     1 |     0 |   945 |     - |   504M |   0 | 420 |3008 |3023 |  17 | 17 |   0 |   0 |-4.315719e+06 |-4.314551e+06 |   0.03%| unknown
  3.3s|     1 |     0 |   972 |     - |   504M |   0 | 420 |3008 |3024 |  18 | 18 |   0 |   0 |-4.315719e+06 |-4.314551e+06 |   0.03%| unknown
  3.3s|     1 |     0 |   996 |     - |   506M |   0 | 420 |3008 |3025 |  19 | 19 |   0 |   0 |-4.315719e+06 |-4.314551e+06 |   0.03%| unknown
  3.4s|     1 |     0 |  1036 |     - |   506M |   0 | 420 |3008 |3026 |  20 | 20 |   0 |   0 |-4.315718e+06 |-4.314551e+06 |   0.03%| unknown
  3.4s|     1 |     0 |  1057 |     - |   506M |   0 | 420 |3008 |3027 |  21 | 21 |   0 |   0 |-4.315718e+06 |-4.314551e+06 |   0.03%| unknown
  3.4s|     1 |     0 |  1066 |     - |   506M |   0 | 420 |3008 |3028 |  22 | 22 |   0 |   0 |-4.315718e+06 |-4.314551e+06 |   0.03%| unknown
  3.4s|     1 |     0 |  1071 |     - |   506M |   0 | 420 |3008 |3028 |  23 | 23 |   0 |   0 |-4.315718e+06 |-4.314551e+06 |   0.03%| unknown
  3.5s|     1 |     0 |  1083 |     - |   506M |   0 | 420 |3008 |3029 |  24 | 24 |   0 |   0 |-4.315718e+06 |-4.314551e+06 |   0.03%| unknown
  3.5s|     1 |     0 |  1096 |     - |   506M |   0 | 420 |3008 |3030 |  25 | 25 |   0 |   0 |-4.315717e+06 |-4.314551e+06 |   0.03%| unknown
 time | node  | left  |LP iter|LP it/n|mem/heur|mdpt |vars |cons |rows |cuts |sepa|confs|strbr|  dualbound   | primalbound  |  gap   | compl. 
  3.5s|     1 |     0 |  1103 |     - |   506M |   0 | 420 |3008 |3031 |  26 | 26 |   0 |   0 |-4.315717e+06 |-4.314551e+06 |   0.03%| unknown
  3.5s|     1 |     0 |  1113 |     - |   506M |   0 | 420 |3008 |3032 |  27 | 27 |   0 |   0 |-4.315717e+06 |-4.314551e+06 |   0.03%| unknown
  3.6s|     1 |     0 |  1121 |     - |   506M |   0 | 420 |3008 |3033 |  28 | 28 |   0 |   0 |-4.315717e+06 |-4.314551e+06 |   0.03%| unknown
  3.6s|     1 |     0 |  1134 |     - |   506M |   0 | 420 |3008 |3032 |  29 | 29 |   0 |   0 |-4.315717e+06 |-4.314551e+06 |   0.03%| unknown
d 4.2s|     1 |     0 |  2280 |     - |farkasdi|   0 | 420 |3006 |3032 |   0 | 31 |   0 |   0 |-4.315717e+06 |-4.315163e+06 |   0.01%| unknown
L13.9s|     1 |     0 | 12280 |     - |    rens|   0 | 420 |3006 |3032 |  29 | 31 |   0 |   0 |-4.315717e+06 |-4.315329e+06 |   0.01%| unknown
(run 1, node 1) restarting after 62 global fixings of integer variables

(restart) converted 26 cuts from the global cut pool into linear constraints

presolving:
(round 1, fast)       64 del vars, 0 del conss, 0 add conss, 2 chg bounds, 0 chg sides, 45924 chg coeffs, 0 upgd conss, 0 impls, 0 clqs
   (15.3s) running MILP presolver
   (15.4s) MILP presolver found nothing
(round 2, exhaustive) 64 del vars, 0 del conss, 0 add conss, 2 chg bounds, 0 chg sides, 45924 chg coeffs, 21 upgd conss, 0 impls, 0 clqs
presolving (3 rounds: 3 fast, 2 medium, 2 exhaustive):
 64 deleted vars, 0 deleted constraints, 0 added constraints, 2 tightened bounds, 0 added holes, 0 changed sides, 45924 changed coefficients
 0 implications, 0 cliques
presolved problem has 356 variables (356 bin, 0 int, 0 impl, 0 cont) and 3032 constraints
     27 constraints of type <knapsack>
      5 constraints of type <linear>
   3000 constraints of type <logicor>
transformed objective value is always integral (scale: 0.02)
Presolving Time: 2.34
transformed 4/5 original solutions to the transformed problem space

 time | node  | left  |LP iter|LP it/n|mem/heur|mdpt |vars |cons |rows |cuts |sepa|confs|strbr|  dualbound   | primalbound  |  gap   | compl. 
 15.7s|     1 |     0 | 12735 |     - |   501M |   0 | 356 |3032 |3032 |   0 |  0 |   0 |   0 |-4.315717e+06 |-4.315329e+06 |   0.01%| unknown
 15.7s|     1 |     0 | 12735 |     - |   501M |   0 | 356 |3032 |3028 |   0 |  0 |   0 |   0 |-4.315717e+06 |-4.315329e+06 |   0.01%| unknown
 15.9s|     1 |     0 | 12756 |     - |   503M |   0 | 356 |3032 |3029 |   1 |  1 |   0 |   0 |-4.315717e+06 |-4.315329e+06 |   0.01%| unknown
 15.9s|     1 |     0 | 12756 |     - |   503M |   0 | 356 |3032 |3029 |   1 |  1 |   0 |   0 |-4.315717e+06 |-4.315329e+06 |   0.01%| unknown
 16.1s|     1 |     0 | 12803 |     - |   504M |   0 | 356 |3032 |3030 |   2 |  2 |   0 |   0 |-4.315715e+06 |-4.315329e+06 |   0.01%| unknown
 16.2s|     1 |     0 | 12829 |     - |   504M |   0 | 356 |3032 |3031 |   3 |  3 |   0 |   0 |-4.315715e+06 |-4.315329e+06 |   0.01%| unknown
 16.4s|     1 |     0 | 12846 |     - |   505M |   0 | 356 |3032 |3032 |   4 |  4 |   0 |   0 |-4.315715e+06 |-4.315329e+06 |   0.01%| unknown
 16.6s|     1 |     0 | 12870 |     - |   507M |   0 | 356 |3032 |3033 |   5 |  5 |   0 |   0 |-4.315714e+06 |-4.315329e+06 |   0.01%| unknown
 16.8s|     1 |     0 | 12901 |     - |   508M |   0 | 356 |3032 |3034 |   6 |  6 |   0 |   0 |-4.315714e+06 |-4.315329e+06 |   0.01%| unknown
 16.9s|     1 |     0 | 12940 |     - |   509M |   0 | 356 |3032 |3035 |   7 |  7 |   0 |   0 |-4.315714e+06 |-4.315329e+06 |   0.01%| unknown
 17.1s|     1 |     0 | 12964 |     - |   511M |   0 | 356 |3032 |3036 |   8 |  8 |   0 |   0 |-4.315713e+06 |-4.315329e+06 |   0.01%| unknown
 17.3s|     1 |     0 | 13007 |     - |   512M |   0 | 356 |3032 |3037 |   9 |  9 |   0 |   0 |-4.315713e+06 |-4.315329e+06 |   0.01%| unknown
 17.4s|     1 |     0 | 13045 |     - |   513M |   0 | 356 |3032 |3038 |  10 | 10 |   0 |   0 |-4.315712e+06 |-4.315329e+06 |   0.01%| unknown
 17.6s|     1 |     0 | 13062 |     - |   513M |   0 | 356 |3032 |3039 |  11 | 11 |   0 |   0 |-4.315712e+06 |-4.315329e+06 |   0.01%| unknown
 17.7s|     1 |     0 | 13075 |     - |   513M |   0 | 356 |3032 |3040 |  12 | 12 |   0 |   0 |-4.315712e+06 |-4.315329e+06 |   0.01%| unknown
 time | node  | left  |LP iter|LP it/n|mem/heur|mdpt |vars |cons |rows |cuts |sepa|confs|strbr|  dualbound   | primalbound  |  gap   | compl. 
 17.8s|     1 |     0 | 13114 |     - |   514M |   0 | 356 |3032 |3041 |  13 | 13 |   0 |   0 |-4.315711e+06 |-4.315329e+06 |   0.01%| unknown
 17.9s|     1 |     0 | 13150 |     - |   514M |   0 | 356 |3032 |3039 |  14 | 14 |   0 |   0 |-4.315711e+06 |-4.315329e+06 |   0.01%| unknown
 18.0s|     1 |     0 | 13186 |     - |   514M |   0 | 356 |3032 |3040 |  15 | 15 |   0 |   0 |-4.315710e+06 |-4.315329e+06 |   0.01%| unknown
 18.1s|     1 |     0 | 13207 |     - |   514M |   0 | 356 |3032 |3041 |  16 | 16 |   0 |   0 |-4.315710e+06 |-4.315329e+06 |   0.01%| unknown
(run 2, node 1) restarting after 182 global fixings of integer variables

(restart) converted 16 cuts from the global cut pool into linear constraints

presolving:
(round 1, fast)       182 del vars, 0 del conss, 0 add conss, 0 chg bounds, 0 chg sides, 131130 chg coeffs, 0 upgd conss, 0 impls, 0 clqs
   (21.9s) running MILP presolver
   (21.9s) MILP presolver found nothing
(round 2, exhaustive) 182 del vars, 0 del conss, 0 add conss, 0 chg bounds, 0 chg sides, 131130 chg coeffs, 16 upgd conss, 0 impls, 0 clqs
presolving (3 rounds: 3 fast, 2 medium, 2 exhaustive):
 182 deleted vars, 0 deleted constraints, 0 added constraints, 0 tightened bounds, 0 added holes, 0 changed sides, 131130 changed coefficients
 0 implications, 0 cliques
presolved problem has 174 variables (174 bin, 0 int, 0 impl, 0 cont) and 3044 constraints
     39 constraints of type <knapsack>
      5 constraints of type <linear>
   3000 constraints of type <logicor>
transformed objective value is always integral (scale: 0.02)
Presolving Time: 2.62
transformed 6/11 original solutions to the transformed problem space

 time | node  | left  |LP iter|LP it/n|mem/heur|mdpt |vars |cons |rows |cuts |sepa|confs|strbr|  dualbound   | primalbound  |  gap   | compl. 
 22.1s|     1 |     0 | 14747 |     - |   510M |   0 | 174 |3044 |3044 |   0 |  0 |   0 |   0 |-4.315710e+06 |-4.315329e+06 |   0.01%| unknown
 22.2s|     1 |     0 | 14803 |     - |   511M |   0 | 174 |3044 |3045 |   1 |  1 |   0 |   0 |-4.315709e+06 |-4.315329e+06 |   0.01%| unknown
 22.2s|     1 |     0 | 14827 |     - |   511M |   0 | 174 |3044 |3046 |   2 |  2 |   0 |   0 |-4.315709e+06 |-4.315329e+06 |   0.01%| unknown
 22.3s|     1 |     0 | 14870 |     - |   511M |   0 | 174 |3044 |3047 |   3 |  3 |   0 |   0 |-4.315709e+06 |-4.315329e+06 |   0.01%| unknown
 22.4s|     1 |     0 | 14894 |     - |   513M |   0 | 174 |3044 |3048 |   4 |  4 |   0 |   0 |-4.315709e+06 |-4.315329e+06 |   0.01%| unknown
 22.5s|     1 |     0 | 14915 |     - |   515M |   0 | 174 |3044 |3049 |   5 |  5 |   0 |   0 |-4.315709e+06 |-4.315329e+06 |   0.01%| unknown
 22.5s|     1 |     0 | 14933 |     - |   515M |   0 | 174 |3044 |3050 |   6 |  6 |   0 |   0 |-4.315709e+06 |-4.315329e+06 |   0.01%| unknown
 22.6s|     1 |     0 | 14941 |     - |   517M |   0 | 174 |3044 |3051 |   7 |  7 |   0 |   0 |-4.315709e+06 |-4.315329e+06 |   0.01%| unknown
 22.7s|     1 |     0 | 14967 |     - |   519M |   0 | 174 |3044 |3052 |   8 |  8 |   0 |   0 |-4.315709e+06 |-4.315329e+06 |   0.01%| unknown
 22.8s|     1 |     0 | 15018 |     - |   519M |   0 | 174 |3044 |3053 |   9 |  9 |   0 |   0 |-4.315708e+06 |-4.315329e+06 |   0.01%| unknown
 22.8s|     1 |     0 | 15081 |     - |   521M |   0 | 174 |3044 |3054 |  10 | 10 |   0 |   0 |-4.315708e+06 |-4.315329e+06 |   0.01%| unknown
 22.9s|     1 |     0 | 15105 |     - |   521M |   0 | 174 |3044 |3055 |  11 | 11 |   0 |   0 |-4.315708e+06 |-4.315329e+06 |   0.01%| unknown
 22.9s|     1 |     0 | 15133 |     - |   521M |   0 | 174 |3044 |3056 |  12 | 12 |   0 |   0 |-4.315708e+06 |-4.315329e+06 |   0.01%| unknown
 23.0s|     1 |     0 | 15162 |     - |   522M |   0 | 174 |3044 |3057 |  13 | 13 |   0 |   0 |-4.315708e+06 |-4.315329e+06 |   0.01%| unknown
 23.0s|     1 |     0 | 15179 |     - |   522M |   0 | 174 |3044 |3058 |  14 | 14 |   0 |   0 |-4.315708e+06 |-4.315329e+06 |   0.01%| unknown
 time | node  | left  |LP iter|LP it/n|mem/heur|mdpt |vars |cons |rows |cuts |sepa|confs|strbr|  dualbound   | primalbound  |  gap   | compl. 
 23.1s|     1 |     0 | 15202 |     - |   522M |   0 | 174 |3044 |3048 |  15 | 15 |   0 |   0 |-4.315708e+06 |-4.315329e+06 |   0.01%| unknown
 23.1s|     1 |     0 | 15233 |     - |   522M |   0 | 174 |3044 |3049 |  16 | 16 |   0 |   0 |-4.315708e+06 |-4.315329e+06 |   0.01%| unknown
 23.2s|     1 |     0 | 15255 |     - |   522M |   0 | 174 |3044 |3050 |  17 | 17 |   0 |   0 |-4.315708e+06 |-4.315329e+06 |   0.01%| unknown
 23.2s|     1 |     0 | 15273 |     - |   522M |   0 | 174 |3044 |3051 |  18 | 18 |   0 |   0 |-4.315708e+06 |-4.315329e+06 |   0.01%| unknown
 23.2s|     1 |     0 | 15317 |     - |   522M |   0 | 174 |3044 |3052 |  19 | 19 |   0 |   0 |-4.315708e+06 |-4.315329e+06 |   0.01%| unknown
 23.3s|     1 |     0 | 15342 |     - |   522M |   0 | 174 |3044 |3053 |  20 | 20 |   0 |   0 |-4.315708e+06 |-4.315329e+06 |   0.01%| unknown
 23.3s|     1 |     0 | 15346 |     - |   522M |   0 | 174 |3044 |3049 |  21 | 21 |   0 |   0 |-4.315708e+06 |-4.315329e+06 |   0.01%| unknown
 27.7s|     1 |     2 | 15346 |     - |   522M |   0 | 174 |3044 |3049 |  21 | 23 |   0 |  32 |-4.315692e+06 |-4.315329e+06 |   0.01%| unknown
 35.1s|   100 |    27 | 25379 | 220.7 |   525M |  16 | 174 |3184 |3031 |  40 |  1 | 140 | 302 |-4.315601e+06 |-4.315329e+06 |   0.01%|  33.96%
*36.4s|   118 |    31 | 26625 | 197.8 |strongbr|  16 | 174 |3198 |3033 |  46 |  1 | 154 | 333 |-4.315601e+06 |-4.315333e+06 |   0.01%|  34.21%
 38.7s|   200 |    47 | 32302 | 145.3 |   533M |  16 | 174 |3235 |3036 |  71 |  1 | 191 | 386 |-4.315570e+06 |-4.315333e+06 |   0.01%|  40.48%
 42.6s|   300 |    91 | 42614 | 131.3 |   536M |  17 | 174 |3288 |3036 | 114 |  0 | 247 | 445 |-4.315521e+06 |-4.315333e+06 |   0.00%|  46.50%
 46.0s|   400 |   115 | 50091 | 117.2 |   536M |  21 | 174 |3345 |3031 | 127 |  1 | 306 | 493 |-4.315487e+06 |-4.315333e+06 |   0.00%|  51.54%
 48.5s|   500 |   125 | 56578 | 106.8 |   538M |  21 | 174 |3376 |3037 | 155 |  0 | 338 | 531 |-4.315476e+06 |-4.315333e+06 |   0.00%|  58.27%
 50.6s|   600 |   135 | 63209 | 100.0 |   538M |  21 | 174 |3391 |3037 | 188 |  0 | 354 | 545 |-4.315476e+06 |-4.315333e+06 |   0.00%|  64.70%
 time | node  | left  |LP iter|LP it/n|mem/heur|mdpt |vars |cons |rows |cuts |sepa|confs|strbr|  dualbound   | primalbound  |  gap   | compl. 
 52.9s|   700 |   141 | 69329 |  94.5 |   539M |  21 | 174 |3413 |3037 | 236 |  0 | 377 | 563 |-4.315457e+06 |-4.315333e+06 |   0.00%|  70.17%
 54.4s|   800 |   125 | 73616 |  88.0 |   539M |  21 | 174 |3425 |3037 | 263 |  0 | 389 | 579 |-4.315440e+06 |-4.315333e+06 |   0.00%|  75.49%
 55.5s|   900 |   103 | 77279 |  82.3 |   539M |  21 | 174 |3428 |3037 | 290 |  0 | 393 | 582 |-4.315412e+06 |-4.315333e+06 |   0.00%|  80.80%
 56.4s|  1000 |    61 | 80544 |  77.4 |   540M |  21 | 174 |3432 |3037 | 297 |  1 | 402 | 588 |-4.315399e+06 |-4.315333e+06 |   0.00%|  88.76%
 57.2s|  1100 |    15 | 82838 |  72.4 |   540M |  21 | 174 |3421 |3041 | 302 |  0 | 406 | 592 |-4.315374e+06 |-4.315333e+06 |   0.00%|  97.19%

SCIP Status        : problem is solved [optimal solution found]
Solving Time (sec) : 57.30
Solving Nodes      : 1121 (total of 1123 nodes in 3 runs)
Primal Bound       : -4.31533281999999e+06 (243 solutions)
Dual Bound         : -4.31533281999999e+06
Gap                : 0.00 %
Solve Status: optimal
Solve Time: 57.32 seconds
